NAME: random98
TYPE: TSP
DIMENSION: 98
EDGE_WEIGHT_TYPE: EXPLICIT
EDGE_WEIGHT_FORMAT: FULL_MATRIX
EDGE_WEIGHT_SECTION
0 123 123 123 123 123 123 123 123 123 123 123 123 123 123 9 123 123 123 123 123 123 123 123 123 123 123 123 123 123 123 123 123 13 123 123 123 123 123 123 123 123 123 123 123 123 123 123 123 123 123 123 123 123 123 123 123 123 123 123 123 123 123 123 123 123 123 14 123 6 123 123 123 123 123 123 123 123 123 123 18 123 123 123 123 123 123 123 123 123 123 123 123 123 123 123 123 123
123 0 123 123 123 123 123 123 14 123 123 123 123 11 123 123 123 123 123 123 123 123 123 123 123 123 123 123 123 123 123 123 123 123 123 123 123 123 123 123 123 123 123 123 123 123 123 123 123 123 123 123 123 123 123 123 123 123 123 14 123 123 123 123 123 123 123 123 13 123 123 123 16 123 123 123 123 123 123 123 123 123 123 123 123 123 123 123 123 123 123 123 123 123 123 17 123 123
123 123 0 123 123 123 123 123 123 123 123 123 123 123 123 123 123 123 123 123 123 9 123 8 123 123 21 25 123 123 123 123 123 123 123 123 123 123 123 23 123 123 123 123 123 123 123 123 123 123 123 123 123 123 25 123 123 123 123 123 123 123 123 123 123 123 23 123 123 123 123 123 123 123 123 123 123 123 123 123 123 123 123 123 123 123 123 123 123 123 123 123 123 123 123 123 123 123
123 123 123 0 123 3 123 123 123 123 123 123 123 123 123 123 123 123 123 123 123 123 123 123 123 123 123 123 123 123 123 123 10 123 11 123 8 123 123 123 123 123 123 123 123 123 123 123 123 123 123 123 123 123 123 123 7 123 123 123 123 123 123 123 123 123 123 123 123 123 1 123 123 123 123 123 123 123 123 123 123 123 123 123 123 123 123 123 123 123 123 123 18 123 123 123 123 123
123 123 123 123 0 123 123 123 123 123 123 123 123 123 123 123 123 123 123 123 123 9 123 123 123 123 123 123 123 123 123 123 123 123 123 123 123 123 123 123 123 123 123 123 8 123 123 123 123 123 123 123 123 123 123 123 123 123 123 123 123 123 123 123 123 123 123 123 123 123 123 123 123 123 12 123 123 123 123 3 123 123 123 123 123 123 123 123 123 123 12 123 123 123 123 123 123 123
123 123 123 3 123 0 123 123 123 123 123 123 123 123 123 123 123 123 123 123 123 123 123 123 123 123 123 123 123 123 123 123 123 123 123 5 123 123 123 123 123 123 123 123 123 123 123 123 123 123 123 123 123 123 123 123 5 123 123 123 123 123 123 123 123 123 123 123 123 123 2 123 123 123 123 7 123 123 123 123 123 123 123 123 123 123 123 123 123 123 123 123 123 123 123 123 123 123
123 123 123 123 123 123 0 123 123 15 123 123 123 123 123 123 123 123 123 123 123 123 123 123 123 123 123 123 123 123 123 123 123 123 123 123 123 123 123 123 17 123 123 123 123 123 123 4 19 123 123 123 123 123 123 123 123 123 123 123 123 123 16 123 123 123 123 28 123 123 123 123 123 123 123 123 123 123 123 123 123 123 123 19 123 123 123 123 123 123 123 123 123 123 123 123 123 123
123 123 123 123 123 123 123 0 123 123 123 123 123 123 123 123 123 123 123 123 123 123 123 123 123 123 123 123 123 123 123 123 123 123 123 123 123 123 123 123 123 123 123 16 123 123 20 123 123 123 123 123 123 123 123 123 123 123 123 123 123 123 123 26 123 28 123 123 123 123 123 123 123 123 123 123 28 123 123 123 123 123 123 123 123 123 123 123 123 123 123 123 123 123 123 123 123 123
123 14 123 123 123 123 123 123 0 123 123 123 123 123 123 123 14 123 123 15 123 123 123 123 123 123 123 123 123 123 123 123 123 123 123 123 123 123 123 123 123 123 123 123 123 123 123 123 123 123 123 123 123 123 123 123 123 123 123 123 123 9 123 123 123 123 123 123 6 123 123 123 16 9 123 123 123 123 123 123 123 123 123 123 123 123 123 123 123 123 123 123 123 123 123 123 123 123
123 123 123 123 123 123 15 123 123 0 123 25 123 123 123 18 123 123 123 123 28 123 123 123 123 123 123 123 123 123 123 123 123 123 123 123 123 123 123 123 123 123 123 123 123 123 123 11 123 123 123 123 123 123 123 8 123 123 123 123 123 123 123 123 123 123 123 27 123 123 123 123 123 123 123 123 123 123 123 123 123 123 123 34 123 123 123 123 123 123 123 123 123 123 123 123 123 123
123 123 123 123 123 123 123 123 123 123 0 123 123 123 123 123 123 123 123 123 123 123 123 123 123 123 123 123 123 123 123 123 123 123 123 123 123 123 123 123 123 123 123 123 123 123 123 123 123 12 4 123 123 123 8 123 123 123 123 123 123 123 11 123 123 123 4 13 123 123 123 123 123 123 123 123 123 123 123 123 123 123 123 123 123 123 123 123 123 123 123 123 123 123 123 123 123 123
123 123 123 123 123 123 123 123 123 25 123 0 123 123 123 123 123 123 123 123 3 123 123 123 123 123 123 123 123 123 123 123 123 123 123 123 123 123 123 123 123 123 123 123 123 123 123 123 123 123 123 123 123 123 123 19 123 123 123 123 123 123 123 123 123 6 123 123 123 123 123 11 123 123 123 123 123 123 123 123 123 10 123 123 123 123 123 123 123 123 123 123 123 123 123 123 123 123
123 123 123 123 123 123 123 123 123 123 123 123 0 123 123 123 123 123 123 123 123 123 12 123 123 123 123 123 123 123 123 123 123 123 123 123 123 56 123 123 123 123 123 123 123 123 123 123 123 123 123 123 8 123 123 123 123 123 123 123 123 123 123 123 123 123 123 123 123 123 123 123 123 123 123 123 123 123 123 123 123 123 123 123 123 123 123 123 123 123 123 29 123 12 7 123 123 123
123 11 123 123 123 123 123 123 123 123 123 123 123 0 123 123 123 123 123 123 123 123 123 123 123 123 123 123 123 123 123 123 123 123 123 123 123 123 123 123 123 123 123 123 123 123 123 123 123 123 123 10 123 123 123 123 123 123 123 4 123 123 123 123 123 123 123 123 123 123 123 123 18 123 123 123 123 123 123 123 123 123 123 123 123 123 123 123 123 123 123 123 123 123 123 123 123 123
123 123 123 123 123 123 123 123 123 123 123 123 123 123 0 123 123 123 123 123 123 123 123 123 123 5 123 123 123 123 123 123 123 123 123 123 123 123 123 123 123 123 123 123 123 123 123 123 123 123 123 123 123 123 123 123 123 123 123 123 123 123 123 123 123 123 123 123 123 12 123 2 123 123 123 123 13 123 123 123 123 7 123 123 123 123 123 123 123 123 123 123 123 123 123 123 123 123
9 123 123 123 123 123 123 123 123 18 123 123 123 123 123 0 123 123 123 123 123 123 123 123 123 6 123 123 123 123 123 123 123 123 123 123 123 123 123 123 123 123 123 123 123 123 123 123 123 123 123 123 123 123 123 12 123 123 123 123 123 123 123 123 123 123 123 17 123 11 123 123 123 123 123 123 123 123 123 123 123 12 123 123 123 123 123 123 123 123 123 123 123 123 123 123 123 123
123 123 123 123 123 123 123 123 14 123 123 123 123 123 123 123 0 123 123 123 123 123 123 123 123 123 123 123 123 123 123 123 123 123 123 123 123 123 123 123 123 123 123 123 123 123 123 123 123 123 123 123 123 123 123 123 123 123 123 123 123 9 123 123 123 123 123 123 123 22 123 123 123 13 123 123 123 123 123 123 4 123 123 123 123 123 123 123 23 123 123 123 7 123 123 123 123 123
123 123 123 123 123 123 123 123 123 123 123 123 123 123 123 123 123 0 123 123 123 123 123 123 123 123 123 123 123 123 123 123 123 123 123 123 123 32 123 123 123 123 123 123 123 123 123 123 123 123 123 10 123 123 123 123 123 123 123 9 123 123 123 123 123 123 123 123 123 123 123 123 123 123 123 123 123 123 123 123 123 123 123 123 123 123 123 123 123 123 123 123 123 123 123 123 123 123
123 123 123 123 123 123 123 123 123 123 123 123 123 123 123 123 123 123 0 123 123 123 123 123 123 123 123 123 123 123 123 123 123 123 123 123 123 123 10 123 123 123 123 123 123 123 123 123 123 123 123 123 123 123 123 123 123 123 123 123 123 123 123 123 123 123 123 123 123 123 123 123 123 123 123 16 123 123 123 123 123 123 123 123 13 9 4 13 123 123 123 15 123 123 123 123 123 123
123 123 123 123 123 123 123 123 15 123 123 123 123 123 123 123 123 123 123 0 123 123 123 123 123 123 123 123 123 123 123 123 123 123 123 123 123 123 123 123 123 123 123 123 123 123 17 123 123 123 123 123 123 123 123 123 123 123 123 123 123 11 123 123 19 123 123 123 123 123 123 123 10 123 123 123 123 123 123 123 123 123 123 123 123 123 123 123 123 123 123 123 123 123 123 123 123 12
123 123 123 123 123 123 123 123 123 28 123 3 123 123 123 123 123 123 123 123 0 123 123 123 123 123 123 123 123 123 123 123 123 123 123 123 123 123 123 123 123 123 123 123 123 123 123 123 123 123 123 123 123 123 123 123 123 123 123 123 123 123 123 6 123 5 123 123 123 123 123 123 123 123 123 123 123 123 123 123 123 123 123 62 123 123 123 123 123 123 123 123 123 123 123 123 123 123
123 123 9 123 9 123 123 123 123 123 123 123 123 123 123 123 123 123 123 123 123 0 123 10 23 123 123 30 123 123 17 123 123 123 123 123 123 123 123 123 123 123 123 123 123 123 123 123 123 123 123 123 123 123 123 123 123 123 123 123 123 123 123 123 123 123 123 123 123 123 123 123 123 123 123 123 123 123 123 11 123 123 123 123 123 123 123 123 123 123 10 123 123 123 123 123 123 123
123 123 123 123 123 123 123 123 123 123 123 123 12 123 123 123 123 123 123 123 123 123 0 123 13 123 123 123 123 123 123 123 123 123 123 123 123 123 123 123 123 123 123 123 123 123 123 123 123 123 123 123 123 123 123 123 123 123 123 123 123 123 123 123 123 123 123 123 123 123 123 123 123 123 123 123 123 123 123 123 123 123 123 123 123 123 123 123 123 123 123 123 123 3 123 123 123 123
123 123 8 123 123 123 123 123 123 123 123 123 123 123 123 123 123 123 123 123 123 10 123 0 123 123 18 123 123 123 123 123 123 123 13 123 123 123 123 123 123 123 123 123 123 123 123 123 123 123 123 123 123 123 123 123 123 123 123 123 123 123 123 123 123 123 123 123 123 123 123 123 123 123 1 123 123 123 123 123 123 123 123 123 123 123 123 123 123 123 1 123 123 123 123 123 123 123
123 123 123 123 123 123 123 123 123 123 123 123 123 123 123 123 123 123 123 123 123 23 13 123 0 123 123 53 123 123 6 123 123 123 123 123 123 123 123 123 123 123 123 123 123 123 123 123 123 123 123 123 123 123 123 123 123 6 123 123 123 123 123 123 123 123 123 123 123 123 123 123 123 123 123 123 123 123 123 123 123 123 123 123 123 123 123 123 123 123 123 123 123 10 123 123 123 123
123 123 123 123 123 123 123 123 123 123 123 123 123 123 5 6 123 123 123 123 123 123 123 123 123 0 123 123 123 123 123 123 123 123 123 123 123 123 123 123 123 123 123 123 123 123 123 123 123 123 123 123 123 123 123 123 123 123 123 123 123 123 123 123 123 123 123 123 123 10 123 123 123 123 123 123 123 123 123 123 123 8 123 123 123 123 123 123 123 123 123 123 123 123 123 123 123 123
123 123 21 123 123 123 123 123 123 123 123 123 123 123 123 123 123 123 123 123 123 123 123 18 123 123 0 123 123 123 123 123 4 123 7 123 123 123 123 123 123 123 9 123 123 123 123 123 123 123 123 123 123 123 12 123 123 123 123 123 123 123 123 123 123 123 123 123 123 123 123 123 123 123 123 123 123 4 123 123 123 123 123 123 123 123 123 123 123 123 123 123 123 123 123 123 123 123
123 123 25 123 123 123 123 123 123 123 123 123 123 123 123 123 123 123 123 123 123 30 123 123 53 123 123 0 123 123 123 123 123 123 123 123 123 123 123 12 123 123 123 123 123 123 123 123 123 123 123 123 123 123 123 123 123 123 123 123 123 123 123 123 123 123 123 123 123 123 123 123 123 123 123 123 123 123 11 123 123 123 123 25 123 123 123 123 123 19 123 123 123 123 123 123 123 123
123 123 123 123 123 123 123 123 123 123 123 123 123 123 123 123 123 123 123 123 123 123 123 123 123 123 123 123 0 123 123 123 123 123 123 123 123 123 123 123 123 123 123 123 4 8 123 123 123 123 123 123 123 123 123 123 123 123 123 123 123 123 123 123 123 123 123 123 123 123 123 123 123 123 15 123 123 123 123 123 123 123 5 123 123 123 123 123 123 123 123 123 123 123 123 123 123 123
123 123 123 123 123 123 123 123 123 123 123 123 123 123 123 123 123 123 123 123 123 123 123 123 123 123 123 123 123 0 123 123 123 123 123 123 123 123 123 123 123 123 123 123 123 123 123 123 123 123 123 123 15 123 123 123 123 123 123 123 123 123 123 123 123 123 123 123 123 123 123 123 123 123 123 123 123 123 123 123 123 123 123 123 123 6 123 3 123 123 123 123 123 123 123 123 9 123
123 123 123 123 123 123 123 123 123 123 123 123 123 123 123 123 123 123 123 123 123 17 123 123 6 123 123 123 123 123 0 123 123 123 123 123 123 123 123 123 123 123 123 123 12 123 123 123 123 123 123 123 123 123 123 123 123 6 123 123 123 123 123 123 123 123 123 123 123 123 123 123 123 123 123 123 123 123 123 7 123 123 123 123 123 123 123 123 123 123 123 123 123 123 123 123 123 123
123 123 123 123 123 123 123 123 123 123 123 123 123 123 123 123 123 123 123 123 123 123 123 123 123 123 123 123 123 123 123 0 123 123 123 12 123 123 123 123 123 123 123 123 123 12 123 123 123 123 123 123 123 123 123 123 123 123 123 123 123 123 123 123 123 123 123 123 123 123 123 123 123 123 123 16 123 123 123 123 123 123 123 123 123 6 8 123 123 123 123 123 123 123 123 123 5 123
123 123 123 10 123 123 123 123 123 123 123 123 123 123 123 123 123 123 123 123 123 123 123 123 123 123 4 123 123 123 123 123 0 123 9 123 123 123 123 123 123 123 123 123 123 123 123 123 123 123 123 123 123 123 123 123 123 123 123 123 123 123 123 123 123 123 123 123 123 123 123 123 123 123 123 123 123 1 123 123 123 123 123 123 123 123 123 123 123 123 123 123 17 123 123 123 123 123
13 123 123 123 123 123 123 123 123 123 123 123 123 123 123 123 123 123 123 123 123 123 123 123 123 123 123 123 123 123 123 123 123 0 123 123 123 123 123 123 123 123 13 123 123 123 123 123 123 6 123 123 123 123 123 123 123 123 123 123 123 123 123 123 123 123 123 4 123 123 123 123 123 123 123 123 123 123 123 123 16 123 123 123 123 123 123 123 123 123 123 123 123 123 123 123 123 123
123 123 123 11 123 123 123 123 123 123 123 123 123 123 123 123 123 123 123 123 123 123 123 13 123 123 7 123 123 123 123 123 9 123 0 123 7 123 123 123 123 123 123 123 123 123 123 123 123 123 123 123 123 123 123 123 123 123 123 123 123 123 123 123 123 123 123 123 123 123 123 123 123 123 13 123 123 123 123 123 123 123 123 123 123 123 123 123 123 123 123 123 123 123 123 123 123 123
123 123 123 123 123 5 123 123 123 123 123 123 123 123 123 123 123 123 123 123 123 123 123 123 123 123 123 123 123 123 123 12 123 123 123 0 6 123 123 123 123 123 123 123 123 11 123 123 123 123 123 123 123 123 123 123 123 123 123 123 123 123 123 123 123 123 123 123 123 123 6 123 123 123 123 10 123 123 123 123 123 123 123 123 123 123 123 123 123 123 123 123 123 123 123 123 123 123
123 123 123 8 123 123 123 123 123 123 123 123 123 123 123 123 123 123 123 123 123 123 123 123 123 123 123 123 123 123 123 123 123 123 7 6 0 123 123 123 123 123 123 123 123 9 123 123 123 123 123 123 123 123 123 123 123 123 123 123 123 123 123 123 123 123 123 123 123 123 8 123 123 123 16 123 123 123 123 123 123 123 123 123 123 123 123 123 123 123 123 123 123 123 123 123 123 123
123 123 123 123 123 123 123 123 123 123 123 123 56 123 123 123 123 32 123 123 123 123 123 123 123 123 123 123 123 123 123 123 123 123 123 123 123 0 20 123 123 123 123 123 123 123 123 123 123 123 123 123 123 123 123 123 123 123 123 30 123 123 123 123 123 123 123 123 123 123 123 123 123 123 123 123 123 123 123 123 123 123 123 123 123 123 123 123 123 123 123 27 123 123 123 16 123 123
123 123 123 123 123 123 123 123 123 123 123 123 123 123 123 123 123 123 10 123 123 123 123 123 123 123 123 123 123 123 123 123 123 123 123 123 123 20 0 123 123 123 123 123 123 123 123 123 123 123 123 123 123 123 123 123 123 123 123 123 123 123 123 123 123 123 123 123 123 123 123 123 123 123 123 123 123 123 123 123 123 123 123 123 10 123 123 123 123 123 123 21 123 123 123 10 123 123
123 123 23 123 123 123 123 123 123 123 123 123 123 123 123 123 123 123 123 123 123 123 123 123 123 123 123 12 123 123 123 123 123 123 123 123 123 123 123 0 8 123 123 123 123 123 123 123 123 123 12 123 123 7 123 123 123 123 123 123 123 123 10 123 123 123 12 123 123 123 123 123 123 123 123 123 123 123 12 123 123 123 123 123 123 123 123 123 123 123 123 123 123 123 123 123 123 123
123 123 123 123 123 123 17 123 123 123 123 123 123 123 123 123 123 123 123 123 123 123 123 123 123 123 123 123 123 123 123 123 123 123 123 123 123 123 123 8 0 123 123 123 123 123 123 123 16 123 123 123 123 4 123 123 123 123 11 123 123 123 6 123 123 123 123 123 123 123 123 123 123 123 123 123 123 123 123 123 123 123 123 123 123 123 123 123 123 123 123 123 123 123 123 123 123 123
123 123 123 123 123 123 123 123 123 123 123 123 123 123 123 123 123 123 123 123 123 123 123 123 123 123 123 123 123 123 123 123 123 123 123 123 123 123 123 123 123 0 123 123 123 123 123 123 123 123 123 123 123 123 123 123 123 123 123 123 123 123 123 123 123 123 123 123 123 10 123 123 123 123 123 123 2 123 123 123 123 123 123 123 123 123 123 123 5 123 123 123 123 123 123 123 123 123
123 123 123 123 123 123 123 123 123 123 123 123 123 123 123 123 123 123 123 123 123 123 123 123 123 123 9 123 123 123 123 123 123 13 123 123 123 123 123 123 123 123 0 123 123 123 123 123 123 9 123 123 123 123 9 123 123 123 123 123 123 123 123 123 123 123 123 123 123 123 123 123 123 123 123 123 123 6 123 123 17 123 123 123 123 123 123 123 123 123 123 123 16 123 123 123 123 123
123 123 123 123 123 123 123 16 123 123 123 123 123 123 123 123 123 123 123 123 123 123 123 123 123 123 123 123 123 123 123 123 123 123 123 123 123 123 123 123 123 123 123 0 123 123 10 123 123 123 123 40 123 123 123 123 123 123 123 123 123 123 123 123 13 123 123 123 123 123 123 123 123 123 123 123 123 123 123 123 123 123 123 123 123 123 123 123 123 123 123 123 123 123 123 123 123 123
123 123 123 123 8 123 123 123 123 123 123 123 123 123 123 123 123 123 123 123 123 123 123 123 123 123 123 123 4 123 12 123 123 123 123 123 123 123 123 123 123 123 123 123 0 123 123 123 123 123 123 123 123 123 123 123 123 12 123 123 123 123 123 123 123 123 123 123 123 123 123 123 123 123 14 123 123 123 123 8 123 123 9 123 123 123 123 123 123 123 123 123 123 123 123 123 123 123
123 123 123 123 123 123 123 123 123 123 123 123 123 123 123 123 123 123 123 123 123 123 123 123 123 123 123 123 8 123 123 12 123 123 123 11 9 123 123 123 123 123 123 123 123 0 123 123 123 123 123 123 123 123 123 123 123 123 123 123 123 123 123 123 123 123 123 123 123 123 123 123 123 123 17 123 123 123 123 123 123 123 8 123 123 123 123 123 123 123 123 123 123 123 123 123 12 123
123 123 123 123 123 123 123 20 123 123 123 123 123 123 123 123 123 123 123 17 123 123 123 123 123 123 123 123 123 123 123 123 123 123 123 123 123 123 123 123 123 123 123 10 123 123 0 123 123 123 123 123 123 123 123 123 123 123 123 123 123 123 123 123 16 123 123 123 123 123 123 123 123 123 123 123 19 123 123 123 123 123 123 123 123 123 123 123 13 123 123 123 123 123 123 123 123 10
123 123 123 123 123 123 4 123 123 11 123 123 123 123 123 123 123 123 123 123 123 123 123 123 123 123 123 123 123 123 123 123 123 123 123 123 123 123 123 123 123 123 123 123 123 123 123 0 123 123 123 123 123 123 123 123 123 123 123 123 123 123 123 123 123 123 123 123 123 123 123 123 123 123 123 123 123 123 123 123 123 123 123 23 123 123 123 123 123 123 123 123 123 123 123 123 123 123
123 123 123 123 123 123 19 123 123 123 123 123 123 123 123 123 123 123 123 123 123 123 123 123 123 123 123 123 123 123 123 123 123 123 123 123 123 123 123 123 16 123 123 123 123 123 123 123 0 123 123 123 123 123 123 123 123 123 7 123 123 123 123 123 123 123 123 123 123 123 123 123 123 123 123 123 123 123 123 123 123 123 123 3 123 123 123 123 123 3 123 123 123 123 123 123 123 123
123 123 123 123 123 123 123 123 123 123 12 123 123 123 123 123 123 123 123 123 123 123 123 123 123 123 123 123 123 123 123 123 123 6 123 123 123 123 123 123 123 123 9 123 123 123 123 123 123 0 123 123 123 123 7 123 123 123 123 123 123 123 123 123 123 123 123 7 123 123 123 123 123 123 123 123 123 123 123 123 123 123 123 123 123 123 123 123 123 123 123 123 123 123 123 123 123 123
123 123 123 123 123 123 123 123 123 123 4 123 123 123 123 123 123 123 123 123 123 123 123 123 123 123 123 123 123 123 123 123 123 123 123 123 123 123 123 12 123 123 123 123 123 123 123 123 123 123 0 123 123 123 123 123 123 123 123 123 123 123 8 123 123 123 2 123 123 123 123 123 123 123 123 123 123 123 123 123 123 123 123 123 123 123 123 123 123 123 123 123 123 123 123 123 123 123
123 123 123 123 123 123 123 123 123 123 123 123 123 10 123 123 123 10 123 123 123 123 123 123 123 123 123 123 123 123 123 123 123 123 123 123 123 123 123 123 123 123 123 40 123 123 123 123 123 123 123 0 123 123 123 123 123 123 123 10 123 123 123 123 27 123 123 123 123 123 123 123 21 123 123 123 123 123 123 123 123 123 123 123 123 123 123 123 123 123 123 123 123 123 123 123 123 123
123 123 123 123 123 123 123 123 123 123 123 123 8 123 123 123 123 123 123 123 123 123 123 123 123 123 123 123 123 15 123 123 123 123 123 123 123 123 123 123 123 123 123 123 123 123 123 123 123 123 123 123 0 123 123 123 123 123 123 123 123 123 123 123 123 123 123 123 123 123 123 123 123 123 123 123 123 123 123 123 123 123 19 123 123 123 123 16 123 123 123 20 123 123 11 123 16 123
123 123 123 123 123 123 123 123 123 123 123 123 123 123 123 123 123 123 123 123 123 123 123 123 123 123 123 123 123 123 123 123 123 123 123 123 123 123 123 7 4 123 123 123 123 123 123 123 123 123 123 123 123 0 123 123 123 123 9 123 123 123 123 123 123 123 123 123 123 123 123 123 123 123 123 123 123 123 8 123 123 123 123 123 123 123 123 123 123 123 123 123 123 123 123 123 123 123
123 123 25 123 123 123 123 123 123 123 8 123 123 123 123 123 123 123 123 123 123 123 123 123 123 123 12 123 123 123 123 123 123 123 123 123 123 123 123 123 123 123 9 123 123 123 123 123 123 7 123 123 123 123 0 123 123 123 123 123 123 123 123 123 123 123 10 123 123 123 123 123 123 123 123 123 123 123 123 123 123 123 123 123 123 123 123 123 123 123 123 123 123 123 123 123 123 123
123 123 123 123 123 123 123 123 123 8 123 19 123 123 123 12 123 123 123 123 123 123 123 123 123 123 123 123 123 123 123 123 123 123 123 123 123 123 123 123 123 123 123 123 123 123 123 123 123 123 123 123 123 123 123 0 123 123 123 123 123 123 123 123 123 123 123 123 123 123 123 123 123 123 123 123 123 123 123 123 123 11 123 123 123 123 123 123 123 123 123 123 123 123 123 123 123 123
123 123 123 7 123 5 123 123 123 123 123 123 123 123 123 123 123 123 123 123 123 123 123 123 123 123 123 123 123 123 123 123 123 123 123 123 123 123 123 123 123 123 123 123 123 123 123 123 123 123 123 123 123 123 123 123 0 123 123 123 13 123 123 123 123 123 123 123 123 123 123 123 123 123 123 3 123 123 123 123 123 123 123 123 123 123 123 123 123 123 123 123 16 123 123 123 123 123
123 123 123 123 123 123 123 123 123 123 123 123 123 123 123 123 123 123 123 123 123 123 123 123 6 123 123 123 123 123 6 123 123 123 123 123 123 123 123 123 123 123 123 123 12 123 123 123 123 123 123 123 123 123 123 123 123 0 123 123 123 123 123 123 123 123 123 123 123 123 123 123 123 123 123 123 123 123 123 123 123 123 16 123 123 123 123 123 123 123 123 123 123 10 12 123 123 123
123 123 123 123 123 123 123 123 123 123 123 123 123 123 123 123 123 123 123 123 123 123 123 123 123 123 123 123 123 123 123 123 123 123 123 123 123 123 123 123 11 123 123 123 123 123 123 123 7 123 123 123 123 9 123 123 123 123 0 123 123 123 123 123 123 123 123 123 123 123 123 123 123 123 123 123 123 123 4 123 123 123 123 123 123 123 123 123 123 5 123 123 123 123 123 123 123 123
123 14 123 123 123 123 123 123 123 123 123 123 123 4 123 123 123 9 123 123 123 123 123 123 123 123 123 123 123 123 123 123 123 123 123 123 123 30 123 123 123 123 123 123 123 123 123 123 123 123 123 10 123 123 123 123 123 123 123 0 123 123 123 123 123 123 123 123 123 123 123 123 123 123 123 123 123 123 123 123 123 123 123 123 123 123 123 123 123 123 123 123 123 123 123 24 123 123
123 123 123 123 123 123 123 123 123 123 123 123 123 123 123 123 123 123 123 123 123 123 123 123 123 123 123 123 123 123 123 123 123 123 123 123 123 123 123 123 123 123 123 123 123 123 123 123 123 123 123 123 123 123 123 123 13 123 123 123 0 123 123 123 123 123 123 123 9 123 123 123 123 3 123 12 123 123 123 123 123 123 123 123 11 123 123 123 123 123 123 123 12 123 123 123 123 123
123 123 123 123 123 123 123 123 9 123 123 123 123 123 123 123 9 123 123 11 123 123 123 123 123 123 123 123 123 123 123 123 123 123 123 123 123 123 123 123 123 123 123 123 123 123 123 123 123 123 123 123 123 123 123 123 123 123 123 123 123 0 123 123 123 123 123 123 123 123 123 123 123 123 123 123 123 123 123 123 123 123 123 123 123 123 123 123 20 123 123 123 123 123 123 123 123 16
123 123 123 123 123 123 16 123 123 123 11 123 123 123 123 123 123 123 123 123 123 123 123 123 123 123 123 123 123 123 123 123 123 123 123 123 123 123 123 10 6 123 123 123 123 123 123 123 123 123 8 123 123 123 123 123 123 123 123 123 123 123 0 123 123 123 123 21 123 123 123 123 123 123 123 123 123 123 123 123 123 123 123 123 123 123 123 123 123 123 123 123 123 123 123 123 123 123
123 123 123 123 123 123 123 26 123 123 123 123 123 123 123 123 123 123 123 123 6 123 123 123 123 123 123 123 123 123 123 123 123 123 123 123 123 123 123 123 123 123 123 123 123 123 123 123 123 123 123 123 123 123 123 123 123 123 123 123 123 123 123 0 123 7 123 123 123 123 123 123 123 123 123 123 123 123 123 123 123 123 123 68 123 123 123 123 123 123 123 123 123 123 123 123 123 123
123 123 123 123 123 123 123 123 123 123 123 123 123 123 123 123 123 123 123 19 123 123 123 123 123 123 123 123 123 123 123 123 123 123 123 123 123 123 123 123 123 123 123 13 123 123 16 123 123 123 123 27 123 123 123 123 123 123 123 123 123 123 123 123 0 123 123 123 123 123 123 123 17 123 123 123 123 123 123 123 123 123 123 123 123 123 123 123 123 123 123 123 123 123 123 123 123 123
123 123 123 123 123 123 123 28 123 123 123 6 123 123 123 123 123 123 123 123 5 123 123 123 123 123 123 123 123 123 123 123 123 123 123 123 123 123 123 123 123 123 123 123 123 123 123 123 123 123 123 123 123 123 123 123 123 123 123 123 123 123 123 7 123 0 123 123 123 123 123 9 123 123 123 123 18 123 123 123 123 123 123 123 123 123 123 123 123 123 123 123 123 123 123 123 123 123
123 123 23 123 123 123 123 123 123 123 4 123 123 123 123 123 123 123 123 123 123 123 123 123 123 123 123 123 123 123 123 123 123 123 123 123 123 123 123 12 123 123 123 123 123 123 123 123 123 123 2 123 123 123 10 123 123 123 123 123 123 123 123 123 123 123 0 123 123 123 123 123 123 123 123 123 123 123 123 123 123 123 123 123 123 123 123 123 123 123 123 123 123 123 123 123 123 123
14 123 123 123 123 123 28 123 123 27 13 123 123 123 123 17 123 123 123 123 123 123 123 123 123 123 123 123 123 123 123 123 123 4 123 123 123 123 123 123 123 123 123 123 123 123 123 123 123 7 123 123 123 123 123 123 123 123 123 123 123 123 21 123 123 123 123 0 123 123 123 123 123 123 123 123 123 123 123 123 123 123 123 123 123 123 123 123 123 123 123 123 123 123 123 123 123 123
123 13 123 123 123 123 123 123 6 123 123 123 123 123 123 123 123 123 123 123 123 123 123 123 123 123 123 123 123 123 123 123 123 123 123 123 123 123 123 123 123 123 123 123 123 123 123 123 123 123 123 123 123 123 123 123 123 123 123 123 9 123 123 123 123 123 123 123 0 123 123 123 123 7 123 123 123 123 123 123 123 123 123 123 15 123 123 123 123 123 123 123 123 123 123 20 123 123
6 123 123 123 123 123 123 123 123 123 123 123 123 123 12 11 22 123 123 123 123 123 123 123 123 10 123 123 123 123 123 123 123 123 123 123 123 123 123 123 123 10 123 123 123 123 123 123 123 123 123 123 123 123 123 123 123 123 123 123 123 123 123 123 123 123 123 123 123 0 123 123 123 123 123 123 10 123 123 123 20 123 123 123 123 123 123 123 14 123 123 123 123 123 123 123 123 123
123 123 123 1 123 2 123 123 123 123 123 123 123 123 123 123 123 123 123 123 123 123 123 123 123 123 123 123 123 123 123 123 123 123 123 6 8 123 123 123 123 123 123 123 123 123 123 123 123 123 123 123 123 123 123 123 123 123 123 123 123 123 123 123 123 123 123 123 123 123 0 123 123 123 123 123 123 123 123 123 123 123 123 123 123 123 123 123 123 123 123 123 123 123 123 123 123 123
123 123 123 123 123 123 123 123 123 123 123 11 123 123 2 123 123 123 123 123 123 123 123 123 123 123 123 123 123 123 123 123 123 123 123 123 123 123 123 123 123 123 123 123 123 123 123 123 123 123 123 123 123 123 123 123 123 123 123 123 123 123 123 123 123 9 123 123 123 123 123 0 123 123 123 123 13 123 123 123 123 7 123 123 123 123 123 123 123 123 123 123 123 123 123 123 123 123
123 16 123 123 123 123 123 123 16 123 123 123 123 18 123 123 123 123 123 10 123 123 123 123 123 123 123 123 123 123 123 123 123 123 123 123 123 123 123 123 123 123 123 123 123 123 123 123 123 123 123 21 123 123 123 123 123 123 123 123 123 123 123 123 17 123 123 123 123 123 123 123 0 123 123 123 123 123 123 123 123 123 123 123 123 123 123 123 123 123 123 123 123 123 123 123 123 123
123 123 123 123 123 123 123 123 9 123 123 123 123 123 123 123 13 123 123 123 123 123 123 123 123 123 123 123 123 123 123 123 123 123 123 123 123 123 123 123 123 123 123 123 123 123 123 123 123 123 123 123 123 123 123 123 123 123 123 123 3 123 123 123 123 123 123 123 7 123 123 123 123 0 123 123 123 123 123 123 123 123 123 123 123 123 123 123 123 123 123 123 11 123 123 123 123 123
123 123 123 123 12 123 123 123 123 123 123 123 123 123 123 123 123 123 123 123 123 123 123 1 123 123 123 123 15 123 123 123 123 123 13 123 16 123 123 123 123 123 123 123 14 17 123 123 123 123 123 123 123 123 123 123 123 123 123 123 123 123 123 123 123 123 123 123 123 123 123 123 123 123 0 123 123 123 123 123 123 123 123 123 123 123 123 123 123 123 1 123 123 123 123 123 123 123
123 123 123 123 123 7 123 123 123 123 123 123 123 123 123 123 123 123 16 123 123 123 123 123 123 123 123 123 123 123 123 16 123 123 123 10 123 123 123 123 123 123 123 123 123 123 123 123 123 123 123 123 123 123 123 123 3 123 123 123 12 123 123 123 123 123 123 123 123 123 123 123 123 123 123 0 123 123 123 123 123 123 123 123 10 123 15 123 123 123 123 123 123 123 123 123 123 123
123 123 123 123 123 123 123 28 123 123 123 123 123 123 13 123 123 123 123 123 123 123 123 123 123 123 123 123 123 123 123 123 123 123 123 123 123 123 123 123 123 2 123 123 123 123 19 123 123 123 123 123 123 123 123 123 123 123 123 123 123 123 123 123 123 18 123 123 123 10 123 13 123 123 123 123 0 123 123 123 123 123 123 123 123 123 123 123 7 123 123 123 123 123 123 123 123 123
123 123 123 123 123 123 123 123 123 123 123 123 123 123 123 123 123 123 123 123 123 123 123 123 123 123 4 123 123 123 123 123 1 123 123 123 123 123 123 123 123 123 6 123 123 123 123 123 123 123 123 123 123 123 123 123 123 123 123 123 123 123 123 123 123 123 123 123 123 123 123 123 123 123 123 123 123 0 123 123 123 123 123 123 123 123 123 123 123 123 123 123 17 123 123 123 123 123
123 123 123 123 123 123 123 123 123 123 123 123 123 123 123 123 123 123 123 123 123 123 123 123 123 123 123 11 123 123 123 123 123 123 123 123 123 123 123 12 123 123 123 123 123 123 123 123 123 123 123 123 123 8 123 123 123 123 4 123 123 123 123 123 123 123 123 123 123 123 123 123 123 123 123 123 123 123 0 123 123 123 123 123 123 123 123 123 123 8 123 123 123 123 123 123 123 123
123 123 123 123 3 123 123 123 123 123 123 123 123 123 123 123 123 123 123 123 123 11 123 123 123 123 123 123 123 123 7 123 123 123 123 123 123 123 123 123 123 123 123 123 8 123 123 123 123 123 123 123 123 123 123 123 123 123 123 123 123 123 123 123 123 123 123 123 123 123 123 123 123 123 123 123 123 123 123 0 123 123 123 123 123 123 123 123 123 123 123 123 123 123 123 123 123 123
18 123 123 123 123 123 123 123 123 123 123 123 123 123 123 123 4 123 123 123 123 123 123 123 123 123 123 123 123 123 123 123 123 16 123 123 123 123 123 123 123 123 17 123 123 123 123 123 123 123 123 123 123 123 123 123 123 123 123 123 123 123 123 123 123 123 123 123 123 20 123 123 123 123 123 123 123 123 123 123 0 123 123 123 123 123 123 123 123 123 123 123 7 123 123 123 123 123
123 123 123 123 123 123 123 123 123 123 123 10 123 123 7 12 123 123 123 123 123 123 123 123 123 8 123 123 123 123 123 123 123 123 123 123 123 123 123 123 123 123 123 123 123 123 123 123 123 123 123 123 123 123 123 11 123 123 123 123 123 123 123 123 123 123 123 123 123 123 123 7 123 123 123 123 123 123 123 123 123 0 123 123 123 123 123 123 123 123 123 123 123 123 123 123 123 123
123 123 123 123 123 123 123 123 123 123 123 123 123 123 123 123 123 123 123 123 123 123 123 123 123 123 123 123 5 123 123 123 123 123 123 123 123 123 123 123 123 123 123 123 9 8 123 123 123 123 123 123 19 123 123 123 123 16 123 123 123 123 123 123 123 123 123 123 123 123 123 123 123 123 123 123 123 123 123 123 123 123 0 123 123 123 123 123 123 123 123 123 123 123 17 123 11 123
123 123 123 123 123 123 19 123 123 34 123 123 123 123 123 123 123 123 123 123 62 123 123 123 123 123 123 25 123 123 123 123 123 123 123 123 123 123 123 123 123 123 123 123 123 123 123 23 3 123 123 123 123 123 123 123 123 123 123 123 123 123 123 68 123 123 123 123 123 123 123 123 123 123 123 123 123 123 123 123 123 123 123 0 123 123 123 123 123 6 123 123 123 123 123 123 123 123
123 123 123 123 123 123 123 123 123 123 123 123 123 123 123 123 123 123 13 123 123 123 123 123 123 123 123 123 123 123 123 123 123 123 123 123 123 123 10 123 123 123 123 123 123 123 123 123 123 123 123 123 123 123 123 123 123 123 123 123 11 123 123 123 123 123 123 123 15 123 123 123 123 123 123 10 123 123 123 123 123 123 123 123 0 123 123 123 123 123 123 123 123 123 123 16 123 123
123 123 123 123 123 123 123 123 123 123 123 123 123 123 123 123 123 123 9 123 123 123 123 123 123 123 123 123 123 6 123 6 123 123 123 123 123 123 123 123 123 123 123 123 123 123 123 123 123 123 123 123 123 123 123 123 123 123 123 123 123 123 123 123 123 123 123 123 123 123 123 123 123 123 123 123 123 123 123 123 123 123 123 123 123 0 5 8 123 123 123 123 123 123 123 123 7 123
123 123 123 123 123 123 123 123 123 123 123 123 123 123 123 123 123 123 4 123 123 123 123 123 123 123 123 123 123 123 123 8 123 123 123 123 123 123 123 123 123 123 123 123 123 123 123 123 123 123 123 123 123 123 123 123 123 123 123 123 123 123 123 123 123 123 123 123 123 123 123 123 123 123 123 15 123 123 123 123 123 123 123 123 123 5 0 123 123 123 123 123 123 123 123 123 123 123
123 123 123 123 123 123 123 123 123 123 123 123 123 123 123 123 123 123 13 123 123 123 123 123 123 123 123 123 123 3 123 123 123 123 123 123 123 123 123 123 123 123 123 123 123 123 123 123 123 123 123 123 16 123 123 123 123 123 123 123 123 123 123 123 123 123 123 123 123 123 123 123 123 123 123 123 123 123 123 123 123 123 123 123 123 8 123 0 123 123 123 7 123 123 123 123 123 123
123 123 123 123 123 123 123 123 123 123 123 123 123 123 123 123 23 123 123 123 123 123 123 123 123 123 123 123 123 123 123 123 123 123 123 123 123 123 123 123 123 5 123 123 123 123 13 123 123 123 123 123 123 123 123 123 123 123 123 123 123 20 123 123 123 123 123 123 123 14 123 123 123 123 123 123 7 123 123 123 123 123 123 123 123 123 123 123 0 123 123 123 123 123 123 123 123 6
123 123 123 123 123 123 123 123 123 123 123 123 123 123 123 123 123 123 123 123 123 123 123 123 123 123 123 19 123 123 123 123 123 123 123 123 123 123 123 123 123 123 123 123 123 123 123 123 3 123 123 123 123 123 123 123 123 123 5 123 123 123 123 123 123 123 123 123 123 123 123 123 123 123 123 123 123 123 8 123 123 123 123 6 123 123 123 123 123 0 123 123 123 123 123 123 123 123
123 123 123 123 12 123 123 123 123 123 123 123 123 123 123 123 123 123 123 123 123 10 123 1 123 123 123 123 123 123 123 123 123 123 123 123 123 123 123 123 123 123 123 123 123 123 123 123 123 123 123 123 123 123 123 123 123 123 123 123 123 123 123 123 123 123 123 123 123 123 123 123 123 123 1 123 123 123 123 123 123 123 123 123 123 123 123 123 123 123 0 123 123 123 123 123 123 123
123 123 123 123 123 123 123 123 123 123 123 123 29 123 123 123 123 123 15 123 123 123 123 123 123 123 123 123 123 123 123 123 123 123 123 123 123 27 21 123 123 123 123 123 123 123 123 123 123 123 123 123 20 123 123 123 123 123 123 123 123 123 123 123 123 123 123 123 123 123 123 123 123 123 123 123 123 123 123 123 123 123 123 123 123 123 123 7 123 123 123 0 123 123 123 123 123 123
123 123 123 18 123 123 123 123 123 123 123 123 123 123 123 123 7 123 123 123 123 123 123 123 123 123 123 123 123 123 123 123 17 123 123 123 123 123 123 123 123 123 16 123 123 123 123 123 123 123 123 123 123 123 123 123 16 123 123 123 12 123 123 123 123 123 123 123 123 123 123 123 123 11 123 123 123 17 123 123 7 123 123 123 123 123 123 123 123 123 123 123 0 123 123 123 123 123
123 123 123 123 123 123 123 123 123 123 123 123 12 123 123 123 123 123 123 123 123 123 3 123 10 123 123 123 123 123 123 123 123 123 123 123 123 123 123 123 123 123 123 123 123 123 123 123 123 123 123 123 123 123 123 123 123 10 123 123 123 123 123 123 123 123 123 123 123 123 123 123 123 123 123 123 123 123 123 123 123 123 123 123 123 123 123 123 123 123 123 123 123 0 8 123 123 123
123 123 123 123 123 123 123 123 123 123 123 123 7 123 123 123 123 123 123 123 123 123 123 123 123 123 123 123 123 123 123 123 123 123 123 123 123 123 123 123 123 123 123 123 123 123 123 123 123 123 123 123 11 123 123 123 123 12 123 123 123 123 123 123 123 123 123 123 123 123 123 123 123 123 123 123 123 123 123 123 123 123 17 123 123 123 123 123 123 123 123 123 123 8 0 123 123 123
123 17 123 123 123 123 123 123 123 123 123 123 123 123 123 123 123 123 123 123 123 123 123 123 123 123 123 123 123 123 123 123 123 123 123 123 123 16 10 123 123 123 123 123 123 123 123 123 123 123 123 123 123 123 123 123 123 123 123 24 123 123 123 123 123 123 123 123 20 123 123 123 123 123 123 123 123 123 123 123 123 123 123 123 16 123 123 123 123 123 123 123 123 123 123 0 123 123
123 123 123 123 123 123 123 123 123 123 123 123 123 123 123 123 123 123 123 123 123 123 123 123 123 123 123 123 123 9 123 5 123 123 123 123 123 123 123 123 123 123 123 123 123 12 123 123 123 123 123 123 16 123 123 123 123 123 123 123 123 123 123 123 123 123 123 123 123 123 123 123 123 123 123 123 123 123 123 123 123 123 11 123 123 7 123 123 123 123 123 123 123 123 123 123 0 123
123 123 123 123 123 123 123 123 123 123 123 123 123 123 123 123 123 123 123 12 123 123 123 123 123 123 123 123 123 123 123 123 123 123 123 123 123 123 123 123 123 123 123 123 123 123 10 123 123 123 123 123 123 123 123 123 123 123 123 123 123 16 123 123 123 123 123 123 123 123 123 123 123 123 123 123 123 123 123 123 123 123 123 123 123 123 123 123 6 123 123 123 123 123 123 123 123 0
EOF
